p cnf 91 8
313 170 236 177 49 209 72 237 390 3 7 79 
112 246 264 239 370 279 373 115 240 357 329 64 
76 389 207 344 123 165 8 258 257 197 296 312 
343 280 307 35 290 335 352 171 58 277 276 
304 174 26 219 388 334 1 245 238 322 15 
13 266 12 235 361 333 80 29 228 110 248 
57 393 353 397 71 399 392 42 244 243 278 
78 297 286 17 331 84 212 347 251 98 220 

